
Gurobi 10.0.1 (win64) logging started Sun Oct  8 10:18:23 2023

Set parameter LogFile to value "./results//log/FMS_11_makespan_heurFalse.log"
Gurobi Optimizer version 10.0.1 build v10.0.1rc0 (win64)

CPU model: AMD Ryzen 7 3700X 8-Core Processor, instruction set [SSE2|AVX|AVX2]
Thread count: 8 physical cores, 16 logical processors, using up to 16 threads

Optimize a model with 268 rows, 292 columns and 1064 nonzeros
Model fingerprint: 0x3319c40a
Variable types: 0 continuous, 292 integer (258 binary)
Coefficient statistics:
  Matrix range     [1e+00, 1e+07]
  Objective range  [1e+00, 1e+00]
  Bounds range     [1e+00, 1e+00]
  RHS range        [1e+00, 3e+07]
Presolve removed 46 rows and 174 columns
Presolve time: 0.01s
Presolved: 222 rows, 118 columns, 965 nonzeros
Variable types: 0 continuous, 118 integer (85 binary)
Found heuristic solution: objective 9071.0000000
Found heuristic solution: objective 7244.0000000

Root relaxation: objective 4.008000e+03, 57 iterations, 0.00 seconds (0.00 work units)

    Nodes    |    Current Node    |     Objective Bounds      |     Work
 Expl Unexpl |  Obj  Depth IntInf | Incumbent    BestBd   Gap | It/Node Time

     0     0 4008.00000    0   23 7244.00000 4008.00000  44.7%     -    0s
     0     0 4018.00000    0   29 7244.00000 4018.00000  44.5%     -    0s
     0     0 4018.00000    0   34 7244.00000 4018.00000  44.5%     -    0s
     0     0 4018.00000    0   36 7244.00000 4018.00000  44.5%     -    0s
H    0     0                    7148.0000000 4033.00000  43.6%     -    0s
     0     0 4033.00000    0   32 7148.00000 4033.00000  43.6%     -    0s
H    0     0                    7144.0000000 4033.00000  43.5%     -    0s
H    0     0                    6898.0000000 4033.00000  41.5%     -    0s
     0     0 4033.00000    0   34 6898.00000 4033.00000  41.5%     -    0s
     0     0 4036.00000    0   32 6898.00000 4036.00000  41.5%     -    0s
     0     0 4036.00000    0   27 6898.00000 4036.00000  41.5%     -    0s
     0     0 4036.00000    0   29 6898.00000 4036.00000  41.5%     -    0s
     0     0 4036.00000    0   29 6898.00000 4036.00000  41.5%     -    0s
     0     0 4046.00000    0   32 6898.00000 4046.00000  41.3%     -    0s
     0     0 4046.00000    0   32 6898.00000 4046.00000  41.3%     -    0s
H    0     0                    6669.0000000 4046.00000  39.3%     -    0s
H    0     0                    6431.0000000 4046.00000  37.1%     -    0s
H    0     0                    6254.0000000 4046.00000  35.3%     -    0s
     0     2 4046.00000    0   30 6254.00000 4046.00000  35.3%     -    0s
H  180   182                    6033.0000000 4064.09060  32.6%   4.8    0s
H  190   182                    5879.0000000 4064.09060  30.9%   4.7    0s
H  195   182                    5764.0000000 4064.09060  29.5%   4.7    0s
H  592   340                    5729.0000000 4092.36132  28.6%   4.3    0s
H 4981  1386                    5660.0000000 4288.31185  24.2%   3.5    1s
H 5091  1385                    5648.0000000 4288.31185  24.1%   0.1    1s
H 5137  1358                    5633.0000000 4288.31185  23.9%   0.2    2s
* 7488  1267              51    5602.0000000 4288.31185  23.5%   1.4    2s
 50324  3504 5350.00000   46    7 5602.00000 5160.00000  7.89%   3.5    5s

Cutting planes:
  Learned: 3
  MIR: 3
  Flow cover: 2
  RLT: 1

Explored 76838 nodes (299330 simplex iterations) in 5.99 seconds (0.64 work units)
Thread count was 16 (of 16 available processors)

Solution count 10: 5602 5633 5648 ... 6431

Optimal solution found (tolerance 1.00e-04)
Best objective 5.602000000000e+03, best bound 5.602000000000e+03, gap 0.0000%
Warning: constraint name "precedence between 0,0 to 0,1 if x_[0,0,0,1,3]=0, i.e. 0,1 before 0,0" has a space
Warning: constraint name "precedence between 0,0 to 0,1 if x_[0,0,0,1,3]=0, i.e. 0,1 before 0,0" has a space
Warning: default constraint names used to write mps file
